(set-info :smt-lib-version 2.6)
(set-logic QF_IDL)
(set-info :source | SMT-COMP'06 Organizers |)
(set-info :category "check")
(set-info :status unsat)
(set-info :notes |This benchmark is designed to check if the DP supports bignumbers.|)
(declare-fun x1 () Int)
(declare-fun x2 () Int)
(declare-fun x3 () Int)
(declare-fun x4 () Int)
(assert (and (<= (- x1 x2) 1.00) (<= (- x2 x3) 2.11) (<= (- x3 x4) (- 1.00)) (<= (- x4 x1) (- 2.12))))
(check-sat)
(exit)
